9
0 10 30 97 66 9 2 21 82 
48 0 15 86 69 83 2 55 78 
26 10 0 71 1 49 9 74 44 
42 41 50 0 87 20 80 99 18 
42 94 32 100 0 77 91 39 52 
51 20 70 95 17 0 38 20 67 
54 36 8 7 19 24 0 92 86 
29 58 28 49 85 88 84 0 72 
56 89 32 80 36 43 74 64 0 
